50
21309

483 137
559 492
556 903
656 886
583 719
294 692
835 191
254 294
784 440
628 188
180 59
357 95
567 633
105 267
799 244
78 472
525 180
458 503
333 463
591 788
600 143
110 554
668 748
483 270
385 664
685 660
6 72
336 429
941 395
770 167
193 648
796 455
152 77
429 75
151 283
110 187
712 503
204 877
71 21
669 628
267 232
862 78
681 677
912 62
306 884
126 146
646 977
426 956
653 904
465 871
